outputs/case_270.model.txt
risk_of_harming_insured_rights = False
financial_or_business_improvement_plan_completed = False
merger_completed = False
net_worth_ratio = 3
person_type = 1
is_self = False
net_worth = 10
improvement_plan_approved = False
improvement_plan_effective = False
financial_or_business_status_worsened = False
unable_to_pay_debt = False
improvement_plan_submitted = False
capital_increase_completed = False
profit_loss_accelerated_deterioration = False
unable_to_fulfill_contract = False
capital_adequacy_ratio = 100
regulatory_limit_enforced = False
blood_relation_degree = 3
is_responsible_person_of_business = False
net_worth_accelerated_deterioration = False
is_spouse = False
company_law_related_enterprise = False
financial_or_business_deterioration = False
related_person_or_enterprise_limit_applied = False
internal_handling_established = True
violation_other_penalty = False
internal_handling_system_established = True
public_disclosure_on_time = True
violation_internal_control_penalty = False
internal_control_and_audit_established = True
reporting_submitted_on_time = True
reporting_content_accurate = True
internal_control_executed = True
violation_reporting_penalty = False
regulatory_action_required = False
internal_handling_executed = True
internal_control_established = True
improvement_plan_not_effective = False
reporting_document_accurate = True
reporting_document_provided = True
capital_level_4_noncompliance = False
capital_level = 0
same_person = True
improvement_plan_submitted_and_approved = False
same_related_enterprise = False
penalty = False
other_legal_violation = False
violation_internal_control_or_handling = False
same_related_person = False